container/z3_queries/smc_granule_undelegate_spec/rtt_map_data/query_2.smt2
; 
(set-info :status unknown)
(declare-datatypes ((s_anon_1_2 0)) (((mks_anon_1_2 (e_s_anon_1_2_0 Int) (e_s_anon_1_2_1 Int) (e_s_anon_1_2_2 Int) (e_g_rd_s_realm_info Int)))))
 (declare-datatypes ((s_fpu_state 0)) (((mks_fpu_state (e_q (Array Int Int)) (e_fpsr Int) (e_fpcr Int) (e_used Int)))))
 (declare-datatypes ((s_anon_0 0)) (((mks_anon_0 (e_s_anon_0_0 Int) (e_s_anon_0_1 Int) (e_s_anon_0_2 Int)))))
 (declare-datatypes ((s_gic_cpu_state 0)) (((mks_gic_cpu_state (e_ich_ap0r (Array Int Int)) (e_ich_ap1r (Array Int Int)) (e_ich_vmcr Int) (e_ich_hcr Int) (e_ich_lr (Array Int Int)) (e_ich_misr Int)))))
 (declare-datatypes ((s_sysreg_state 0)) (((mks_sysreg_state (e_sp_el0 Int) (e_sp_el1 Int) (e_elr_el1 Int) (e_spsr_el2 Int) (e_spsr_el1 Int) (e_pmcr_el0 Int) (e_pmuserenr_el0 Int) (e_tpidrro_el0 Int) (e_tpidr_el0 Int) (e_csselr_el1 Int) (e_sctlr_el1 Int) (e_actlr_el1 Int) (e_cpacr_el1 Int) (e_zcr_el1 Int) (e_ttbr0_el1 Int) (e_ttbr1_el1 Int) (e_tcr_el1 Int) (e_esr_el1 Int) (e_afsr0_el1 Int) (e_afsr1_el1 Int) (e_far_el1 Int) (e_mair_el1 Int) (e_vbar_el1_s_sysreg_state Int) (e_contextidr_el1 Int) (e_tpidr_el1 Int) (e_amair_el1 Int) (e_cntkctl_el1 Int) (e_par_el1 Int) (e_mdscr_el1 Int) (e_mdccint_el1 Int) (e_disr_el1 Int) (e_mpam0_el1 Int) (e_cnthctl_el2 Int) (e_cntvoff_el2 Int) (e_cntp_ctl_el0 Int) (e_cntp_cval_el0 Int) (e_cntv_ctl_el0 Int) (e_cntv_cval_el0 Int) (e_gicstate s_gic_cpu_state) (e_vmpidr_el2 Int) (e_hcr_el2 Int) (e_cptr_el2 Int) (e_tcr_el2 Int) (e_sctlr_el2 Int)))))
 (declare-datatypes ((s_anon_1 0)) (((mks_anon_1 (e_s_anon_1_0 Int) (e_s_anon_1_1 Int) (e_s_anon_1_2 Int) (e_s_anon_1_3 Int)))))
 (declare-datatypes ((s_common_sysreg_state 0)) (((mks_common_sysreg_state (e_vttbr_el2 Int) (e_vtcr_el2 Int) (e_hcr_el2_common_flags Int)))))
 (declare-datatypes ((s_realm_s1_context 0)) (((mks_realm_s1_context (e_g_ttbr0 Int) (e_g_ttbr1 Int)))))
 (declare-datatypes ((u_anon_3 0)) (((mku_anon_3 (e_u_anon_3_0 Int)))))
 (declare-datatypes ((s_anon_3 0)) (((mks_anon_3 (e_s_anon_3_0 Int)))))
 (declare-datatypes ((s_rec 0)) (((mks_rec (e_g_rec Int) (e_rec_idx Int) (e_runnable Int) (e_regs (Array Int Int)) (e_pc_s_rec Int) (e_pstate Int) (e_sysregs s_sysreg_state) (e_common_sysregs s_common_sysreg_state) (e_set_ripas s_anon_1) (e_dispose_info s_anon_0) (e_realm_info s_anon_1_2) (e_last_run_info u_anon_3) (e_fpu s_fpu_state) (e_ns Int) (e_psci_info s_anon_3) (e_is_pico_s_rec Int) (e_initialized Int) (e_s1_ctx s_realm_s1_context)))))
 (declare-datatypes ((s_mbedtls_sha256_context 0)) (((mks_mbedtls_sha256_context (e_total (Array Int Int)) (e_state (Array Int Int)) (e_buffer (Array Int Int)) (e_is224 Int)))))
 (declare-datatypes ((s_measurement_ctx 0)) (((mks_measurement_ctx (e_c s_mbedtls_sha256_context) (e_measurement_algo_s_measurement_ctx Int)))))
 (declare-datatypes ((s_realm_s2_context 0)) (((mks_realm_s2_context (e_ipa_bits Int) (e_s2_starting_level Int) (e_num_root_rtts Int) (e_g_rtt Int) (e_vmid Int)))))
 (declare-datatypes ((u_anon 0)) (((mku_anon (e_u_anon_0 (Array Int Int))))))
 (declare-datatypes ((s_measurement 0)) (((mks_measurement (e_0 u_anon)))))
 (declare-datatypes ((s_rd 0)) (((mks_rd (e_state_s_rd Int) (e_rec_count Int) (e_s2_ctx s_realm_s2_context) (e_par_base_s_rd Int) (e_par_size_s_rd Int) (e_par_end Int) (e_ctx s_measurement_ctx) (e_measurement (Array Int s_measurement)) (e_is_rc_s_rd Int)))))
 (declare-datatypes ((r_granule_data 0)) (((mkr_granule_data (gd_g_idx Int) (g_granule_state Int) (g_norm (Array Int Int)) (g_rd s_rd) (g_rec s_rec)))))
 (declare-sort |Func_list Event_List_Event| 0)
 (declare-sort |Func_list Event_Shared_Option_Shared| 0)
 (declare-datatypes ((Option_Z 0)) (((Some_Z (value_Z Int)) (None_Z))))
 (declare-datatypes ((s_spinlock_t 0)) (((mks_spinlock_t (e_val Option_Z)))))
 (declare-datatypes ((s_granule 0)) (((mks_granule (e_lock s_spinlock_t) (e_state_s_granule Int) (e_ref u_anon_3)))))
 (declare-datatypes ((s_s1tt 0)) (((mks_s1tt (e_s1tte (Array Int Int))))))
 (declare-datatypes ((s_q_useful_buf 0)) (((mks_q_useful_buf (e_ptr Int) (e_len_s_q_useful_buf Int)))))
 (declare-datatypes ((s_buffer_alloc_ctx 0)) (((mks_buffer_alloc_ctx (e_buf Int) (e_len Int) (e_first Int) (e_first_free Int) (e_verify Int)))))
 (declare-datatypes ((s_rmm_trap_element 0)) (((mks_rmm_trap_element (e_aborted_pc Int) (e_new_pc Int)))))
 (declare-datatypes ((GLOBALS 0)) (((mkGLOBALS (g_heap (Array Int s_buffer_alloc_ctx)) (g_debug_exits Int) (g_vmid_count Int) (g_vmid_lock s_spinlock_t) (g_vmids (Array Int Int)) (g_nr_lrs Int) (g_nr_aprs Int) (g_max_vintid Int) (g_pri_res0_mask Int) (g_default_gicstate s_gic_cpu_state) (g_status_handler (Array Int Int)) (g_rmm_trap_list (Array Int s_rmm_trap_element)) (g_tt_l3_buffer s_s1tt) (g_tt_l2_mem0_0 s_s1tt) (g_tt_l2_mem0_1 s_s1tt) (g_tt_l2_mem1_0 s_s1tt) (g_tt_l2_mem1_1 s_s1tt) (g_tt_l2_mem1_2 s_s1tt) (g_tt_l2_mem1_3 s_s1tt) (g_tt_l1_upper (Array Int Int)) (g_mbedtls_mem_buf (Array Int Int)) (g_granules (Array Int s_granule)) (g_rmm_attest_signing_key Int) (g_rmm_attest_public_key (Array Int Int)) (g_rmm_attest_public_key_len Int) (g_rmm_attest_public_key_hash (Array Int Int)) (g_rmm_attest_public_key_hash_len Int) (g_platform_token_buf (Array Int Int)) (g_rmm_platform_token s_q_useful_buf) (g_get_realm_identity_identity (Array Int Int)) (g_realm_attest_private_key (Array Int Int))))))
 (declare-datatypes ((Shared 0)) (((mkShared (gpt (Array Int Bool)) (granule_data (Array Int r_granule_data)) (globals GLOBALS)))))
 (declare-datatypes ((s_rec_params 0)) (((mks_rec_params (e_gprs_s_rec_params (Array Int Int)) (e_pc Int) (e_flags Int) (e_is_pico Int) (e_rtt Int) (e_vbar_el1 Int)))))
 (declare-datatypes ((s_rec_entry 0)) (((mks_rec_entry (e_gprs (Array Int Int)) (e_is_emulated_mmio Int) (e_emulated_read_val Int) (e_dispose_response Int) (e_gicv3_lrs (Array Int Int)) (e_gicv3_hcr Int) (e_trap_wfi Int) (e_trap_wfe Int)))))
 (declare-datatypes ((s_granule_set 0)) (((mks_granule_set (e_idx Int) (e_addr Int) (e_state_s_granule_set Int) (e_g Int) (e_g_ret Int)))))
 (declare-datatypes ((s_smc_result 0)) (((mks_smc_result (e_x0 Int) (e_x1 Int) (e_x2 Int) (e_x3 Int)))))
 (declare-datatypes ((s_rec_exit 0)) (((mks_rec_exit (e_exit_reason Int) (e_esr Int) (e_far Int) (e_hpfar Int) (e_emulated_write_val Int) (e_gprs_s_rec_exit (Array Int Int)) (e_target_rec Int) (e_disposed_addr Int) (e_disposed_size Int) (e_gicv3_vmcr Int) (e_gicv3_misr Int) (e_timer_info s_smc_result) (e_gicv3_lrs_s_rec_exit (Array Int Int)) (e_gicv3_hcr_s_rec_exit Int)))))
 (declare-datatypes ((s_attest_result 0)) (((mks_attest_result (e_return_to_realm Int) (e_rtt_level Int) (e_smc_result s_smc_result)))))
 (declare-datatypes ((s_realm_params 0)) (((mks_realm_params (e_par_base Int) (e_par_size Int) (e_rtt_addr Int) (e_measurement_algo Int) (e_realm_feat_0 Int) (e_s2_starting_level_s_realm_params Int) (e_num_s2_sl_rtts Int) (e_vmid_s_realm_params Int) (e_is_rc Int)))))
 (declare-datatypes ((s_anon_5 0)) (((mks_anon_5 (e_s_anon_5_0 Int) (e_s_anon_5_1 Int) (e_s_anon_5_2 Int) (e_s_anon_5_3 Int)))))
 (declare-datatypes ((s_psci_result 0)) (((mks_psci_result (e_hvc_forward s_anon_5) (e_smc_result_s_psci_result s_smc_result)))))
 (declare-datatypes ((s_ns_state 0)) (((mks_ns_state (e_sysregs_s_ns_state s_sysreg_state) (e_sp_el0_s_ns_state Int) (e_icc_sre_el2 Int) (e_fpu_s_ns_state s_fpu_state)))))
 (declare-datatypes ((s_anon 0)) (((mks_anon (e_s_anon_0 Int) (e_s_anon_1 Int) (e_s_anon_2 Int)))))
 (declare-datatypes ((s___QCBORTrackNesting 0)) (((mks___QCBORTrackNesting (e_pArrays (Array Int s_anon)) (e_pCurrentNesting Int)))))
 (declare-datatypes ((s_useful_out_buf 0)) (((mks_useful_out_buf (e_UB s_q_useful_buf) (e_data_len Int) (e_magic Int) (e_err Int)))))
 (declare-datatypes ((s__QCBOREncodeContext 0)) (((mks__QCBOREncodeContext (e_OutBuf s_useful_out_buf) (e_uError Int) (e_nesting s___QCBORTrackNesting)))))
 (declare-datatypes ((u_anon_0 0)) (((mku_anon_0 (e_u_anon_0_0 Int)))))
 (declare-datatypes ((s_t_cose_key 0)) (((mks_t_cose_key (e_crypto_lib Int) (e_k u_anon_0)))))
 (declare-datatypes ((s_t_cose_sign1_sign_ctx 0)) (((mks_t_cose_sign1_sign_ctx (e_protected_parameters s_q_useful_buf) (e_cose_algorithm_id Int) (e_signing_key s_t_cose_key) (e_option_flags Int) (e_kid s_q_useful_buf) (e_content_type_uint Int) (e_content_type_tstr Int)))))
 (declare-datatypes ((s_attest_token_encode_ctx 0)) (((mks_attest_token_encode_ctx (e_cbor_enc_ctx s__QCBOREncodeContext) (e_opt_flags Int) (e_key_select Int) (e_signer_ctx s_t_cose_sign1_sign_ctx)))))
 (declare-datatypes ((s_rtt_walk 0)) (((mks_rtt_walk (e_g_llt Int) (e_index_s_rtt_walk Int) (e_last_level Int)))))
 (declare-datatypes ((s_psa_key_policy_s 0)) (((mks_psa_key_policy_s (e_usage Int) (e_alg Int) (e_alg2 Int)))))
 (declare-datatypes ((s_psa_core_key_attributes_t 0)) (((mks_psa_core_key_attributes_t (e_type_s_psa_core_key_attributes_t Int) (e_bits Int) (e_lifetime Int) (e_id Int) (e_policy s_psa_key_policy_s) (e_flags_s_psa_core_key_attributes_t Int)))))
 (declare-datatypes ((s_psa_key_attributes_s 0)) (((mks_psa_key_attributes_s (e_core s_psa_core_key_attributes_t) (e_domain_parameters Int) (e_domain_parameters_size Int)))))
 (declare-datatypes ((STACK 0)) (((mkSTACK (stack_type_1 Int) (stack_type_2 Int) (stack_type_3 Int) (stack_type_3__1 Int) (stack_s_smc_result s_smc_result) (stack_s_smc_result__1 s_smc_result) (stack_s_rmm_trap_element s_rmm_trap_element) (stack_s_rec_exit s_rec_exit) (stack_type_4 Int) (stack_type_4__1 Int) (stack_s_ns_state s_ns_state) (stack_s_q_useful_buf s_q_useful_buf) (stack_s_q_useful_buf__1 s_q_useful_buf) (stack_s_q_useful_buf__2 s_q_useful_buf) (stack_s_q_useful_buf__3 s_q_useful_buf) (stack_s_attest_token_encode_ctx s_attest_token_encode_ctx) (stack_s_rtt_walk s_rtt_walk) (stack_s_rtt_walk__1 s_rtt_walk) (stack_s_psci_result s_psci_result) (stack_s_attest_result s_attest_result) (stack_s_rec_entry s_rec_entry) (stack_s_realm_s2_context s_realm_s2_context) (stack_s_rec_params s_rec_params) (stack_s_realm_params s_realm_params) (stack_s_psa_key_attributes_s s_psa_key_attributes_s) (stack_type_5 (Array Int Int)) (stack_type_6 (Array Int s_granule_set)) (stack_type_7 (Array Int Int)) (stack_type_8 (Array Int Int))))))
 (declare-datatypes ((ns_copy_type 0)) (((READ_REALM_PARAMS) (READ_REC_PARAMS) (READ_REC_RUN) (WRITE_REC_RUN (run (Array Int Int))) (READ_DATA (gidx Int)))))
 (declare-datatypes ((realm_trap_type 0)) (((WFX) (HVC) (SMC) (IDREG) (TIMER) (ICC) (DATA_ABORT) (INSTR_ABORT) (IRQ) (FIQ))))
 (declare-datatypes ((update_rec_list_type 0)) (((GET_RECL) (SET_RECL (gidx Int)) (UNSET_RECL))))
 (declare-datatypes ((AtomicEvent 0)) (((ACQ (gidx Int)) (REL (gidx1 Int) (gn s_granule)) (REC_REF (ref_gidx Int) (ref_cnt Int)) (GET_GCNT (gidx3 Int)) (INC_GCNT (gidx4 Int)) (DEC_RD_GCNT (gidx5 Int)) (DEC_REC_GCNT (gidx6 Int) (gn_1 s_granule)) (RECL (gidx7 Int) (idx8 Int) (t update_rec_list_type)) (ACQ_GPT (gidx9 Int)) (REL_GPT (gidx10 Int) (secure Bool)) (RTT_WALK (root_gidx Int) (map_addr Int) (level Int)) (RTT_CREATE (root_gidx1 Int) (map_addr1 Int) (level1 Int) (rtt_addr Int)) (RTT_DESTROY (root_gidx2 Int) (map_addr2 Int) (level2 Int)) (COPY_NS (gidx11 Int) (t1 ns_copy_type)) (NS_ACCESS_MEM (addr Int) (val Int)) (REALM_ACCESS_MEM (rd Int) (rec Int) (addr1 Int) (val1 Int)) (REALM_ACCESS_REG (rd1 Int) (rec1 Int) (reg Int) (val2 Int)) (REALM_ACTIVATE (rd_gidx Int)) (REALM_TRAP (rd2 Int) (rec2 Int) (trap_type realm_trap_type)))))
 (declare-datatypes ((Event 0)) (((EVT (cpuid Int) (e AtomicEvent)))))
 (declare-datatypes ((List_Event 0)) (((cons_Event (head_Event Event) (tail_Event List_Event)) (nil_Event))))
 (declare-datatypes ((PerCPURegs 0)) (((mkPerCPURegs (pcpu_vttbr_el2 Int) (pcpu_zcr_el2 Int) (pcpu_cnthctl_el2 Int) (pcpu_elr_el2 Int) (pcpu_cptr_el2 Int) (pcpu_mdcr_el2 Int) (pcpu_vpidr_el2 Int) (pcpu_sctlr_el2 Int) (pcpu_esr_el2 Int) (pcpu_spsr_el2 Int) (pcpu_hpfar_el2 Int) (pcpu_far_el2 Int) (pcpu_vsesr_el2 Int) (pcpu_hcr_el2 Int) (pcpu_cntvoff_el2 Int) (pcpu_vmpidr_el2 Int) (pcpu_vtcr_el2 Int) (pcpu_ich_hcr_el2 Int) (pcpu_ich_misr_el2 Int) (pcpu_ich_vmcr_el2 Int) (pcpu_ich_ap0r3_el2 Int) (pcpu_ich_ap0r2_el2 Int) (pcpu_ich_ap0r1_el2 Int) (pcpu_ich_ap0r0_el2 Int) (pcpu_ich_ap1r3_el2 Int) (pcpu_ich_ap1r2_el2 Int) (pcpu_ich_ap1r1_el2 Int) (pcpu_ich_ap1r0_el2 Int) (pcpu_ich_ir0 Int) (pcpu_ich_ir1 Int) (pcpu_ich_ir2 Int) (pcpu_ich_ir3 Int) (pcpu_ich_ir4 Int) (pcpu_ich_ir5 Int) (pcpu_ich_ir6 Int) (pcpu_ich_ir7 Int) (pcpu_ich_ir8 Int) (pcpu_ich_ir9 Int) (pcpu_ich_lr0_el2 Int) (pcpu_ich_lr1_el2 Int) (pcpu_ich_lr2_el2 Int) (pcpu_ich_lr3_el2 Int) (pcpu_ich_lr4_el2 Int) (pcpu_ich_lr5_el2 Int) (pcpu_ich_lr6_el2 Int) (pcpu_ich_lr7_el2 Int) (pcpu_ich_lr8_el2 Int) (pcpu_ich_lr9_el2 Int) (pcpu_ich_lr10_el2 Int) (pcpu_ich_lr11_el2 Int) (pcpu_ich_lr12_el2 Int) (pcpu_ich_lr13_el2 Int) (pcpu_ich_lr14_el2 Int) (pcpu_ich_lr15_el2 Int) (pcpu_icc_sre_el2 Int) (pcpu_esr_el12 Int) (pcpu_spsr_el12 Int) (pcpu_elr_el12 Int) (pcpu_vbar_el12 Int) (pcpu_far_el12 Int) (pcpu_amair_el12 Int) (pcpu_cntkctl_el12 Int) (pcpu_cntp_ctl_el02 Int) (pcpu_cntp_cval_el02 Int) (pcpu_cntpoff_el2 Int) (pcpu_cntv_ctl_el02 Int) (pcpu_cntv_cval_el02 Int) (pcpu_contextidr_el12 Int) (pcpu_mair_el12 Int) (pcpu_afsr1_el12 Int) (pcpu_afsr0_el12 Int) (pcpu_tcr_el12 Int) (pcpu_ttbr1_el12 Int) (pcpu_ttbr0_el12 Int) (pcpu_cpacr_el12 Int) (pcpu_sctlr_el12 Int) (pcpu_midr_el1 Int) (pcpu_isr_el1 Int) (pcpu_id_aa64mmfr0_el1 Int) (pcpu_id_aa64mmfr1_el1 Int) (pcpu_id_aa64dfr0_el1 Int) (pcpu_id_aa64dfr1_el1 Int) (pcpu_id_aa64pfr0_el1 Int) (pcpu_id_aa64pfr1_el1 Int) (pcpu_disr_el1 Int) (pcpu_mdccint_el1 Int) (pcpu_mdscr_el1 Int) (pcpu_par_el1 Int) (pcpu_tpidr_el1 Int) (pcpu_actlr_el1 Int) (pcpu_csselr_el1 Int) (pcpu_sp_el1 Int) (pcpu_pmintenset_el1 Int) (pcpu_pmintenclr_el1 Int) (pcpu_icc_hppir1_el1 Int) (pcpu_pmcr_el0 Int) (pcpu_pmevtyper0_el0 Int) (pcpu_pmevtyper1_el0 Int) (pcpu_pmevtyper2_el0 Int) (pcpu_pmevtyper3_el0 Int) (pcpu_pmevtyper4_el0 Int) (pcpu_pmevtyper5_el0 Int) (pcpu_pmevtyper6_el0 Int) (pcpu_pmevtyper7_el0 Int) (pcpu_pmevtyper8_el0 Int) (pcpu_pmevtyper9_el0 Int) (pcpu_pmevtyper10_el0 Int) (pcpu_pmevtyper11_el0 Int) (pcpu_pmevtyper12_el0 Int) (pcpu_pmevtyper13_el0 Int) (pcpu_pmevtyper14_el0 Int) (pcpu_pmevtyper15_el0 Int) (pcpu_pmevtyper16_el0 Int) (pcpu_pmevtyper17_el0 Int) (pcpu_pmevtyper18_el0 Int) (pcpu_pmevtyper19_el0 Int) (pcpu_pmevtyper20_el0 Int) (pcpu_pmevtyper21_el0 Int) (pcpu_pmevtyper22_el0 Int) (pcpu_pmevtyper23_el0 Int) (pcpu_pmevtyper24_el0 Int) (pcpu_pmevtyper25_el0 Int) (pcpu_pmevtyper26_el0 Int) (pcpu_pmevtyper27_el0 Int) (pcpu_pmevtyper28_el0 Int) (pcpu_pmevtyper29_el0 Int) (pcpu_pmevtyper30_el0 Int) (pcpu_pmevcntr0_el0 Int) (pcpu_pmevcntr1_el0 Int) (pcpu_pmevcntr2_el0 Int) (pcpu_pmevcntr3_el0 Int) (pcpu_pmevcntr4_el0 Int) (pcpu_pmevcntr5_el0 Int) (pcpu_pmevcntr6_el0 Int) (pcpu_pmevcntr7_el0 Int) (pcpu_pmevcntr8_el0 Int) (pcpu_pmevcntr9_el0 Int) (pcpu_pmevcntr10_el0 Int) (pcpu_pmevcntr11_el0 Int) (pcpu_pmevcntr12_el0 Int) (pcpu_pmevcntr13_el0 Int) (pcpu_pmevcntr14_el0 Int) (pcpu_pmevcntr15_el0 Int) (pcpu_pmevcntr16_el0 Int) (pcpu_pmevcntr17_el0 Int) (pcpu_pmevcntr18_el0 Int) (pcpu_pmevcntr19_el0 Int) (pcpu_pmevcntr20_el0 Int) (pcpu_pmevcntr21_el0 Int) (pcpu_pmevcntr22_el0 Int) (pcpu_pmevcntr23_el0 Int) (pcpu_pmevcntr24_el0 Int) (pcpu_pmevcntr25_el0 Int) (pcpu_pmevcntr26_el0 Int) (pcpu_pmevcntr27_el0 Int) (pcpu_pmevcntr28_el0 Int) (pcpu_pmevcntr29_el0 Int) (pcpu_pmevcntr30_el0 Int) (pcpu_pmccfiltr_el0 Int) (pcpu_pmccntr_el0 Int) (pcpu_pmcntenset_el0 Int) (pcpu_pmcntenclr_el0 Int) (pcpu_pmovsclr_el0 Int) (pcpu_pmovsset_el0 Int) (pcpu_pmselr_el0 Int) (pcpu_pmuserenr_el0 Int) (pcpu_pmxevcntr_el0 Int) (pcpu_pmxevtyper_el0 Int) (pcpu_tpidr_el0 Int) (pcpu_tpidrro_el0 Int) (pcpu_sp_el0 Int) (pcpu_cntfrq_el0 Int) (pcpu_dummy_regs Int)))))
 (declare-datatypes ((GPRegs 0)) (((mkGPRegs (X0 Int) (X1 Int) (X2 Int) (X3 Int) (X4 Int) (X5 Int) (X6 Int) (X7 Int) (X8 Int) (X9 Int) (X10 Int) (X11 Int) (X12 Int) (X13 Int) (X14 Int) (X15 Int) (X16 Int) (X17 Int) (X18 Int) (X19 Int) (X20 Int) (X21 Int) (X22 Int) (X23 Int) (X24 Int) (X25 Int) (X26 Int) (X27 Int) (X28 Int) (X29 Int) (LR Int)))))
 (declare-datatypes ((PerCPU 0)) (((mkPerCPU (pcpu_regs PerCPURegs) (pcpu_gpregs GPRegs)))))
 (declare-datatypes ((RData 0)) (((mkRData (log List_Event) (oracle |Func_list Event_List_Event|) (repl |Func_list Event_Shared_Option_Shared|) (priv PerCPU) (share Shared) (stack STACK) (halt Bool)))))
 (declare-datatypes ((Option_Shared 0)) (((Some_Shared (value_Shared Shared)) (None_Shared))))
 (declare-datatypes ((abs_PA_t 0)) (((mkabs_PA_t (meta_granule_offset Int)))))
 (declare-datatypes ((abs_PTE_t 0)) (((mkabs_PTE_t (meta_PA abs_PA_t) (meta_desc_type Int) (meta_ripas Int) (meta_mem_attr Int)))))
 (declare-datatypes ((Option_RData 0)) (((Some_RData (value_RData RData)) (None_RData))))
 (declare-fun rtt_walk_abs.0_call (RData Int Int) Int)
(declare-fun st.0 () RData)
(declare-fun rtt_is_root.0_call (Int) Bool)
(declare-fun |(repl st.0)_call| (List_Event Shared) Option_Shared)
(declare-fun |(oracle st.0)_call| (List_Event) List_Event)
(declare-fun List_Event_concat (List_Event List_Event) List_Event)
(declare-fun test_Z_PTE.0_call (Int) abs_PTE_t)
(declare-fun query_oracle.0_call (RData) Option_RData)
(declare-fun |(repl (value_RData (query_oracle.0_call st.0)))_call| (List_Event Shared) Option_Shared)
(declare-fun |(oracle (value_RData (query_oracle.0_call st.0)))_call| (List_Event) List_Event)
(declare-fun test_PA.0_call (Int) abs_PA_t)
(declare-fun v_0.552459 () Int)
(declare-fun CPU_ID.0 () Int)
(declare-fun set_tte_ns_abs.0_call (Int RData) Option_RData)
(declare-fun |(let ((a!1 (value_RData (set_tte_ns_abs.0_call
                          v_0.552459
                          (value_RData (query_oracle.0_call st.0))))))
  (repl a!1))_call| (List_Event Shared) Option_Shared)
(declare-fun |(let ((a!1 (value_RData (set_tte_ns_abs.0_call
                          v_0.552459
                          (value_RData (query_oracle.0_call st.0))))))
  (oracle a!1))_call| (List_Event) List_Event)
(assert
 (forall ((rtt_gidx.47976 Int) (ipa_gidx.47976 Int) (data_gidx.47976 Int) )(let ((?x13 (share st.0)))
 (let ((?x51 (granule_data ?x13)))
 (let ((?x138 (g_granule_state (select ?x51 (rtt_walk_abs.0_call st.0 rtt_gidx.47976 ipa_gidx.47976)))))
 (let (($x142 (rtt_is_root.0_call rtt_gidx.47976)))
 (=> (and (= (e_state_s_granule (select (g_granules (globals ?x13)) rtt_gidx.47976)) 5) $x142) (or (= ?x138 4) (= ?x138 6))))))))
 )
(assert
 (forall ((rtt_gidx.49358 Int) (ipa_gidx.49358 Int) (i.49358 Int) (d.49358 s_granule) )(let (($x58 (halt st.0)))
 (let ((?x57 (stack st.0)))
 (let ((?x13 (share st.0)))
 (let ((?x15 (globals ?x13)))
 (let ((?x48 (g_realm_attest_private_key ?x15)))
 (let ((?x47 (g_get_realm_identity_identity ?x15)))
 (let ((?x46 (g_rmm_platform_token ?x15)))
 (let ((?x45 (g_platform_token_buf ?x15)))
 (let ((?x44 (g_rmm_attest_public_key_hash_len ?x15)))
 (let ((?x43 (g_rmm_attest_public_key_hash ?x15)))
 (let ((?x42 (g_rmm_attest_public_key_len ?x15)))
 (let ((?x41 (g_rmm_attest_public_key ?x15)))
 (let ((?x40 (g_rmm_attest_signing_key ?x15)))
 (let ((?x17 (g_granules ?x15)))
 (let ((?x1009 (store ?x17 i.49358 d.49358)))
 (let ((?x39 (g_mbedtls_mem_buf ?x15)))
 (let ((?x38 (g_tt_l1_upper ?x15)))
 (let ((?x37 (g_tt_l2_mem1_3 ?x15)))
 (let ((?x36 (g_tt_l2_mem1_2 ?x15)))
 (let ((?x35 (g_tt_l2_mem1_1 ?x15)))
 (let ((?x34 (g_tt_l2_mem1_0 ?x15)))
 (let ((?x33 (g_tt_l2_mem0_1 ?x15)))
 (let ((?x32 (g_tt_l2_mem0_0 ?x15)))
 (let ((?x31 (g_tt_l3_buffer ?x15)))
 (let ((?x30 (g_rmm_trap_list ?x15)))
 (let ((?x29 (g_status_handler ?x15)))
 (let ((?x28 (g_default_gicstate ?x15)))
 (let ((?x27 (g_pri_res0_mask ?x15)))
 (let ((?x26 (g_max_vintid ?x15)))
 (let ((?x25 (g_nr_aprs ?x15)))
 (let ((?x24 (g_nr_lrs ?x15)))
 (let ((?x23 (g_vmids ?x15)))
 (let ((?x22 (g_vmid_lock ?x15)))
 (let ((?x21 (g_vmid_count ?x15)))
 (let ((?x20 (g_debug_exits ?x15)))
 (let ((?x19 (g_heap ?x15)))
 (let ((?x1010 (mkGLOBALS ?x19 ?x20 ?x21 ?x22 ?x23 ?x24 ?x25 ?x26 ?x27 ?x28 ?x29 ?x30 ?x31 ?x32 ?x33 ?x34 ?x35 ?x36 ?x37 ?x38 ?x39 ?x1009 ?x40 ?x41 ?x42 ?x43 ?x44 ?x45 ?x46 ?x47 ?x48)))
 (let ((?x51 (granule_data ?x13)))
 (let ((?x50 (gpt ?x13)))
 (let ((?x56 (priv st.0)))
 (let ((?x55 (repl st.0)))
 (let ((?x54 (oracle st.0)))
 (let ((?x53 (log st.0)))
 (let ((?x1013 (rtt_walk_abs.0_call (mkRData ?x53 ?x54 ?x55 ?x56 (mkShared ?x50 ?x51 ?x1010) ?x57 $x58) rtt_gidx.49358 ipa_gidx.49358)))
 (let ((?x1015 (rtt_walk_abs.0_call st.0 rtt_gidx.49358 ipa_gidx.49358)))
 (let ((?x160 (e_state_s_granule (select ?x17 i.49358))))
 (let (($x161 (= ?x160 5)))
 (let (($x162 (not $x161)))
 (let (($x1020 (and $x162 (not (= ?x160 4)))))
 (=> $x1020 (= (+ ?x1015 (* (- 1) ?x1013)) 0))))))))))))))))))))))))))))))))))))))))))))))))))))
 )
(assert
 (let (($x713 (forall ((rtt_gidx.60285 Int) (ipa_gidx.60285 Int) )(let ((?x13 (share st.0)))
 (let ((?x53 (log st.0)))
 (let ((?x81 (|(oracle st.0)_call| ?x53)))
 (let ((?x83 (|(repl st.0)_call| ?x81 ?x13)))
 (let ((?x85 (value_Shared ?x83)))
 (let ((?x186 (globals ?x85)))
 (let ((?x187 (g_granules ?x186)))
 (let (($x228 (not (= (e_state_s_granule (select ?x187 rtt_gidx.60285)) 5))))
 (let (($x153 (not (rtt_is_root.0_call rtt_gidx.60285))))
 (let (($x58 (halt st.0)))
 (let ((?x57 (stack st.0)))
 (let ((?x56 (priv st.0)))
 (let ((?x55 (repl st.0)))
 (let ((?x54 (oracle st.0)))
 (let ((?x87 (List_Event_concat ?x81 ?x53)))
 (let ((?x132 (mkRData ?x87 ?x54 ?x55 ?x56 ?x85 ?x57 $x58)))
 (let ((?x220 (rtt_walk_abs.0_call ?x132 rtt_gidx.60285 ipa_gidx.60285)))
 (let ((?x125 (granule_data ?x85)))
 (let ((?x222 (g_granule_state (select ?x125 ?x220))))
 (let (($x224 (= ?x222 4)))
 (let (($x223 (= ?x222 6)))
 (or $x223 $x224 $x153 $x228)))))))))))))))))))))))
 ))
 (let (($x1068 (forall ((rtt_gidx.60249 Int) (ipa_gidx.60249 Int) )(let ((?x160 (e_state_s_granule (select (g_granules (globals (share st.0))) rtt_gidx.60249))))
 (let (($x161 (= ?x160 5)))
 (let (($x162 (not $x161)))
 (let (($x153 (not (rtt_is_root.0_call rtt_gidx.60249))))
 (let ((?x154 (rtt_walk_abs.0_call st.0 rtt_gidx.60249 ipa_gidx.60249)))
 (let ((?x13 (share st.0)))
 (let ((?x51 (granule_data ?x13)))
 (let ((?x156 (g_granule_state (select ?x51 ?x154))))
 (let (($x158 (= ?x156 4)))
 (let (($x157 (= ?x156 6)))
 (or $x157 $x158 $x153 $x162))))))))))))
 ))
 (or (not $x1068) $x713))))
(assert
 (forall ((v_0.60696 Int) )(let ((?x1066 (div (meta_granule_offset (meta_PA (test_Z_PTE.0_call v_0.60696))) 4096)))
 (let ((?x13 (share st.0)))
 (let ((?x50 (gpt ?x13)))
 (select ?x50 ?x1066)))))
 )
(assert
 (forall ((rtt_gidx.50266 Int) (ipa_gidx.50266 Int) (i.50266 Int) (d.50266 r_granule_data) )(let (($x58 (halt st.0)))
 (let ((?x57 (stack st.0)))
 (let ((?x13 (share st.0)))
 (let ((?x15 (globals ?x13)))
 (let ((?x50 (gpt ?x13)))
 (let ((?x56 (priv st.0)))
 (let ((?x55 (repl st.0)))
 (let ((?x54 (oracle st.0)))
 (let ((?x53 (log st.0)))
 (let ((?x1098 (mkRData ?x53 ?x54 ?x55 ?x56 (mkShared ?x50 (store (granule_data ?x13) i.50266 d.50266) ?x15) ?x57 $x58)))
 (let ((?x1099 (rtt_walk_abs.0_call ?x1098 rtt_gidx.50266 ipa_gidx.50266)))
 (let ((?x1015 (rtt_walk_abs.0_call st.0 rtt_gidx.50266 ipa_gidx.50266)))
 (let (($x1101 (= (+ ?x1015 (* (- 1) ?x1099)) 0)))
 (let ((?x160 (e_state_s_granule (select (g_granules ?x15) i.50266))))
 (let (($x161 (= ?x160 5)))
 (let (($x162 (not $x161)))
 (let (($x1020 (and $x162 (not (= ?x160 4)))))
 (=> $x1020 $x1101)))))))))))))))))))
 )
(assert
 (forall ((rtt_gidx.552424 Int) (ipa_gidx.552424 Int) (data_gidx.552424 Int) )(let ((?x427 (query_oracle.0_call st.0)))
 (let ((?x501 (value_RData ?x427)))
 (let ((?x612 (share ?x501)))
 (let ((?x9011 (granule_data ?x612)))
 (let ((?x1153 (g_granule_state (select ?x9011 (rtt_walk_abs.0_call ?x501 rtt_gidx.552424 ipa_gidx.552424)))))
 (let (($x142 (rtt_is_root.0_call rtt_gidx.552424)))
 (=> (and (= (e_state_s_granule (select (g_granules (globals ?x612)) rtt_gidx.552424)) 5) $x142) (or (= ?x1153 4) (= ?x1153 6))))))))))
 )
(assert
 (forall ((v_0.552459 Int) )(let ((?x1066 (div (meta_granule_offset (meta_PA (test_Z_PTE.0_call v_0.552459))) 4096)))
 (let ((?x427 (query_oracle.0_call st.0)))
 (let ((?x501 (value_RData ?x427)))
 (let ((?x612 (share ?x501)))
 (let ((?x85599 (gpt ?x612)))
 (select ?x85599 ?x1066)))))))
 )
(assert
 (let (($x1234 (forall ((rtt_gidx.552751 Int) (ipa_gidx.552751 Int) )(let ((?x427 (query_oracle.0_call st.0)))
 (let ((?x501 (value_RData ?x427)))
 (let ((?x612 (share ?x501)))
 (let ((?x413 (log ?x501)))
 (let ((?x1150 (|(oracle (value_RData (query_oracle.0_call st.0)))_call| ?x413)))
 (let ((?x1155 (|(repl (value_RData (query_oracle.0_call st.0)))_call| ?x1150 ?x612)))
 (let ((?x1154 (value_Shared ?x1155)))
 (let ((?x1177 (globals ?x1154)))
 (let ((?x46881 (g_granules ?x1177)))
 (let (($x1232 (not (= (e_state_s_granule (select ?x46881 rtt_gidx.552751)) 5))))
 (let (($x46988 (halt ?x501)))
 (let ((?x39265 (stack ?x501)))
 (let ((?x39264 (priv ?x501)))
 (let ((?x39256 (repl ?x501)))
 (let ((?x39255 (oracle ?x501)))
 (let ((?x1181 (List_Event_concat ?x1150 ?x413)))
 (let ((?x1191 (mkRData ?x1181 ?x39255 ?x39256 ?x39264 ?x1154 ?x39265 $x46988)))
 (let ((?x1224 (rtt_walk_abs.0_call ?x1191 rtt_gidx.552751 ipa_gidx.552751)))
 (let ((?x920 (granule_data ?x1154)))
 (let ((?x1226 (g_granule_state (select ?x920 ?x1224))))
 (let (($x1228 (= ?x1226 4)))
 (let (($x1227 (= ?x1226 6)))
 (let (($x153 (not (rtt_is_root.0_call rtt_gidx.552751))))
 (or $x153 $x1227 $x1228 $x1232)))))))))))))))))))))))))
 ))
 (let (($x1223 (forall ((rtt_gidx.552715 Int) (ipa_gidx.552715 Int) )(let (($x153 (not (rtt_is_root.0_call rtt_gidx.552715))))
 (let ((?x427 (query_oracle.0_call st.0)))
 (let ((?x501 (value_RData ?x427)))
 (let ((?x1214 (rtt_walk_abs.0_call ?x501 rtt_gidx.552715 ipa_gidx.552715)))
 (let ((?x612 (share ?x501)))
 (let ((?x9011 (granule_data ?x612)))
 (let ((?x1216 (g_granule_state (select ?x9011 ?x1214))))
 (let (($x1221 (= ?x1216 4)))
 (let (($x1220 (not (= (e_state_s_granule (select (g_granules (globals ?x612)) rtt_gidx.552715)) 5))))
 (let (($x1217 (= ?x1216 6)))
 (or $x1217 $x1220 $x1221 $x153))))))))))))
 ))
 (or (not $x1223) $x1234))))
(assert
 (forall ((rtt_gidx.552856 Int) (ipa_gidx.552856 Int) (i.552856 Int) (d.552856 r_granule_data) )(let ((?x427 (query_oracle.0_call st.0)))
 (let ((?x501 (value_RData ?x427)))
 (let (($x46988 (halt ?x501)))
 (let ((?x39265 (stack ?x501)))
 (let ((?x612 (share ?x501)))
 (let ((?x620 (globals ?x612)))
 (let ((?x85599 (gpt ?x612)))
 (let ((?x39264 (priv ?x501)))
 (let ((?x39256 (repl ?x501)))
 (let ((?x39255 (oracle ?x501)))
 (let ((?x413 (log ?x501)))
 (let ((?x1248 (mkRData ?x413 ?x39255 ?x39256 ?x39264 (mkShared ?x85599 (store (granule_data ?x612) i.552856 d.552856) ?x620) ?x39265 $x46988)))
 (let ((?x1249 (rtt_walk_abs.0_call ?x1248 rtt_gidx.552856 ipa_gidx.552856)))
 (let ((?x1251 (rtt_walk_abs.0_call ?x501 rtt_gidx.552856 ipa_gidx.552856)))
 (let (($x1220 (not (= (e_state_s_granule (select (g_granules ?x620) i.552856)) 5))))
 (let (($x729 (and $x1220 (not (= (e_state_s_granule (select (g_granules ?x620) i.552856)) 4)))))
 (=> $x729 (= (+ ?x1251 (* (- 1) ?x1249)) 0)))))))))))))))))))
 )
(assert
 (forall ((rtt_gidx.552963 Int) (ipa_gidx.552963 Int) (i.552963 Int) (d.552963 s_granule) )(let ((?x427 (query_oracle.0_call st.0)))
 (let ((?x501 (value_RData ?x427)))
 (let (($x46988 (halt ?x501)))
 (let ((?x39265 (stack ?x501)))
 (let ((?x612 (share ?x501)))
 (let ((?x620 (globals ?x612)))
 (let ((?x85597 (g_realm_attest_private_key ?x620)))
 (let ((?x47002 (g_get_realm_identity_identity ?x620)))
 (let ((?x31467 (g_rmm_platform_token ?x620)))
 (let ((?x31491 (g_platform_token_buf ?x620)))
 (let ((?x54718 (g_rmm_attest_public_key_hash_len ?x620)))
 (let ((?x31492 (g_rmm_attest_public_key_hash ?x620)))
 (let ((?x39227 (g_rmm_attest_public_key_len ?x620)))
 (let ((?x39235 (g_rmm_attest_public_key ?x620)))
 (let ((?x39234 (g_rmm_attest_signing_key ?x620)))
 (let ((?x46937 (g_mbedtls_mem_buf ?x620)))
 (let ((?x46966 (g_tt_l1_upper ?x620)))
 (let ((?x46965 (g_tt_l2_mem1_3 ?x620)))
 (let ((?x54687 (g_tt_l2_mem1_2 ?x620)))
 (let ((?x54700 (g_tt_l2_mem1_1 ?x620)))
 (let ((?x54699 (g_tt_l2_mem1_0 ?x620)))
 (let ((?x54698 (g_tt_l2_mem0_1 ?x620)))
 (let ((?x62433 (g_tt_l2_mem0_0 ?x620)))
 (let ((?x62432 (g_tt_l3_buffer ?x620)))
 (let ((?x62431 (g_rmm_trap_list ?x620)))
 (let ((?x70173 (g_status_handler ?x620)))
 (let ((?x555 (g_default_gicstate ?x620)))
 (let ((?x62444 (g_pri_res0_mask ?x620)))
 (let ((?x39232 (g_max_vintid ?x620)))
 (let ((?x54689 (g_nr_aprs ?x620)))
 (let ((?x70158 (g_nr_lrs ?x620)))
 (let ((?x31483 (g_vmids ?x620)))
 (let ((?x39205 (g_vmid_lock ?x620)))
 (let ((?x31477 (g_vmid_count ?x620)))
 (let ((?x54679 (g_debug_exits ?x620)))
 (let ((?x39213 (g_heap ?x620)))
 (let ((?x1281 (mkGLOBALS ?x39213 ?x54679 ?x31477 ?x39205 ?x31483 ?x70158 ?x54689 ?x39232 ?x62444 ?x555 ?x70173 ?x62431 ?x62432 ?x62433 ?x54698 ?x54699 ?x54700 ?x54687 ?x46965 ?x46966 ?x46937 (store (g_granules ?x620) i.552963 d.552963) ?x39234 ?x39235 ?x39227 ?x31492 ?x54718 ?x31491 ?x31467 ?x47002 ?x85597)))
 (let ((?x9011 (granule_data ?x612)))
 (let ((?x85599 (gpt ?x612)))
 (let ((?x39264 (priv ?x501)))
 (let ((?x39256 (repl ?x501)))
 (let ((?x39255 (oracle ?x501)))
 (let ((?x413 (log ?x501)))
 (let ((?x1284 (rtt_walk_abs.0_call (mkRData ?x413 ?x39255 ?x39256 ?x39264 (mkShared ?x85599 ?x9011 ?x1281) ?x39265 $x46988) rtt_gidx.552963 ipa_gidx.552963)))
 (let ((?x1251 (rtt_walk_abs.0_call ?x501 rtt_gidx.552963 ipa_gidx.552963)))
 (let (($x1220 (not (= (e_state_s_granule (select (g_granules ?x620) i.552963)) 5))))
 (let (($x729 (and $x1220 (not (= (e_state_s_granule (select (g_granules ?x620) i.552963)) 4)))))
 (=> $x729 (= (+ ?x1251 (* (- 1) ?x1284)) 0))))))))))))))))))))))))))))))))))))))))))))))))))
 )
(assert
 (let ((?x13 (share st.0)))
 (let ((?x15 (globals ?x13)))
 (let ((?x17 (g_granules ?x15)))
 (let ((?x427 (query_oracle.0_call st.0)))
 (let ((?x501 (value_RData ?x427)))
 (let ((?x612 (share ?x501)))
 (let ((?x620 (globals ?x612)))
 (let ((?x409 (g_granules ?x620)))
 (= ?x409 ?x17))))))))))
(assert
 (let ((?x1321 (test_PA.0_call v_0.552459)))
 (let ((?x1386 (meta_granule_offset ?x1321)))
 (let ((?x1287 (div ?x1386 4096)))
 (let ((?x427 (query_oracle.0_call st.0)))
 (let ((?x501 (value_RData ?x427)))
 (let ((?x612 (share ?x501)))
 (let ((?x620 (globals ?x612)))
 (let ((?x409 (g_granules ?x620)))
 (let ((?x1324 (select ?x409 ?x1287)))
 (let ((?x1325 (e_lock ?x1324)))
 (let ((?x1326 (e_val ?x1325)))
 (= ?x1326 None_Z)))))))))))))
(assert
 (let ((?x1321 (test_PA.0_call v_0.552459)))
 (let ((?x1386 (meta_granule_offset ?x1321)))
 (let ((?x1293 (div ?x1386 16)))
 (let ((?x1287 (div ?x1386 4096)))
 (let ((?x427 (query_oracle.0_call st.0)))
 (let ((?x501 (value_RData ?x427)))
 (let ((?x612 (share ?x501)))
 (let ((?x620 (globals ?x612)))
 (let ((?x409 (g_granules ?x620)))
 (let ((?x1324 (select ?x409 ?x1287)))
 (let ((?x25108 (Some_Z CPU_ID.0)))
 (let ((?x62443 (mks_spinlock_t ?x25108)))
 (let ((?x1423 (mks_granule ?x62443 (e_state_s_granule ?x1324) (e_ref ?x1324))))
 (let ((?x1382 (store ?x409 ?x1287 ?x1423)))
 (let ((?x1297 (select ?x1382 ?x1293)))
 (let ((?x1424 (e_state_s_granule ?x1297)))
 (= ?x1424 1))))))))))))))))))
(assert
 (let ((?x1321 (test_PA.0_call v_0.552459)))
 (let ((?x1386 (meta_granule_offset ?x1321)))
 (let (($x1318 (>= ?x1386 0)))
 (let ((?x1320 (mod ?x1386 4096)))
 (let (($x1317 (= ?x1320 0)))
 (and $x1317 $x1318)))))))
(assert
 (forall ((rtt_gidx.553101 Int) (ipa_gidx.553101 Int) (data_gidx.553101 Int) )(let ((?x427 (query_oracle.0_call st.0)))
 (let ((?x501 (value_RData ?x427)))
 (let ((?x1425 (set_tte_ns_abs.0_call v_0.552459 ?x501)))
 (let ((?x1383 (value_RData ?x1425)))
 (let ((?x1339 (share ?x1383)))
 (let ((?x1277 (granule_data ?x1339)))
 (let ((?x1341 (g_granule_state (select ?x1277 (rtt_walk_abs.0_call ?x1383 rtt_gidx.553101 ipa_gidx.553101)))))
 (let (($x142 (rtt_is_root.0_call rtt_gidx.553101)))
 (=> (and (= (e_state_s_granule (select (g_granules (globals ?x1339)) rtt_gidx.553101)) 5) $x142) (or (= ?x1341 4) (= ?x1341 6))))))))))))
 )
(assert
 (forall ((v_0.553136 Int) )(let ((?x1066 (div (meta_granule_offset (meta_PA (test_Z_PTE.0_call v_0.553136))) 4096)))
 (let ((?x427 (query_oracle.0_call st.0)))
 (let ((?x501 (value_RData ?x427)))
 (let ((?x1425 (set_tte_ns_abs.0_call v_0.552459 ?x501)))
 (let ((?x1383 (value_RData ?x1425)))
 (let ((?x1339 (share ?x1383)))
 (let ((?x1384 (gpt ?x1339)))
 (select ?x1384 ?x1066)))))))))
 )
(assert
 (let (($x1399 (forall ((rtt_gidx.553428 Int) (ipa_gidx.553428 Int) )(let (($x153 (not (rtt_is_root.0_call rtt_gidx.553428))))
 (let ((?x427 (query_oracle.0_call st.0)))
 (let ((?x501 (value_RData ?x427)))
 (let ((?x1425 (set_tte_ns_abs.0_call v_0.552459 ?x501)))
 (let ((?x1383 (value_RData ?x1425)))
 (let (($x1405 (halt ?x1383)))
 (let ((?x1406 (stack ?x1383)))
 (let ((?x1339 (share ?x1383)))
 (let ((?x1295 (log ?x1383)))
 (let ((?x1114 (|(let ((a!1 (value_RData (set_tte_ns_abs.0_call
                          v_0.552459
                          (value_RData (query_oracle.0_call st.0))))))
  (oracle a!1))_call| ?x1295)))
 (let ((?x1437 (|(let ((a!1 (value_RData (set_tte_ns_abs.0_call
                          v_0.552459
                          (value_RData (query_oracle.0_call st.0))))))
  (repl a!1))_call| ?x1114 ?x1339)))
 (let ((?x1444 (value_Shared ?x1437)))
 (let ((?x1442 (priv ?x1383)))
 (let ((?x1501 (repl ?x1383)))
 (let ((?x1549 (oracle ?x1383)))
 (let ((?x1335 (List_Event_concat ?x1114 ?x1295)))
 (let ((?x1407 (mkRData ?x1335 ?x1549 ?x1501 ?x1442 ?x1444 ?x1406 $x1405)))
 (let ((?x1628 (rtt_walk_abs.0_call ?x1407 rtt_gidx.553428 ipa_gidx.553428)))
 (let ((?x1450 (granule_data ?x1444)))
 (let ((?x1559 (g_granule_state (select ?x1450 ?x1628))))
 (let (($x1625 (= ?x1559 6)))
 (let (($x1462 (= ?x1559 4)))
 (let (($x1624 (not (= (e_state_s_granule (select (g_granules (globals ?x1444)) rtt_gidx.553428)) 5))))
 (or $x1624 $x1462 $x1625 $x153)))))))))))))))))))))))))
 ))
 (let (($x1644 (forall ((rtt_gidx.553392 Int) (ipa_gidx.553392 Int) )(let ((?x427 (query_oracle.0_call st.0)))
 (let ((?x501 (value_RData ?x427)))
 (let ((?x1425 (set_tte_ns_abs.0_call v_0.552459 ?x501)))
 (let ((?x1383 (value_RData ?x1425)))
 (let ((?x1339 (share ?x1383)))
 (let ((?x1340 (globals ?x1339)))
 (let ((?x1350 (g_granules ?x1340)))
 (let ((?x1555 (e_state_s_granule (select ?x1350 rtt_gidx.553392))))
 (let (($x1412 (= ?x1555 5)))
 (let (($x1664 (not $x1412)))
 (let (($x153 (not (rtt_is_root.0_call rtt_gidx.553392))))
 (let ((?x1568 (g_granule_state (select (granule_data ?x1339) (rtt_walk_abs.0_call ?x1383 rtt_gidx.553392 ipa_gidx.553392)))))
 (let (($x1569 (= ?x1568 6)))
 (let (($x1629 (= ?x1568 4)))
 (or $x1629 $x1569 $x153 $x1664))))))))))))))))
 ))
 (or (not $x1644) $x1399))))
(assert
 (forall ((rtt_gidx.553533 Int) (ipa_gidx.553533 Int) (i.553533 Int) (d.553533 r_granule_data) )(let ((?x427 (query_oracle.0_call st.0)))
 (let ((?x501 (value_RData ?x427)))
 (let ((?x1425 (set_tte_ns_abs.0_call v_0.552459 ?x501)))
 (let ((?x1383 (value_RData ?x1425)))
 (let (($x1405 (halt ?x1383)))
 (let ((?x1406 (stack ?x1383)))
 (let ((?x1339 (share ?x1383)))
 (let ((?x1340 (globals ?x1339)))
 (let ((?x1384 (gpt ?x1339)))
 (let ((?x1442 (priv ?x1383)))
 (let ((?x1501 (repl ?x1383)))
 (let ((?x1549 (oracle ?x1383)))
 (let ((?x1295 (log ?x1383)))
 (let ((?x504 (mkRData ?x1295 ?x1549 ?x1501 ?x1442 (mkShared ?x1384 (store (granule_data ?x1339) i.553533 d.553533) ?x1340) ?x1406 $x1405)))
 (let ((?x1793 (rtt_walk_abs.0_call ?x504 rtt_gidx.553533 ipa_gidx.553533)))
 (let ((?x1728 (rtt_walk_abs.0_call ?x1383 rtt_gidx.553533 ipa_gidx.553533)))
 (let (($x1516 (= (+ ?x1728 (* (- 1) ?x1793)) 0)))
 (let ((?x1555 (e_state_s_granule (select (g_granules ?x1340) i.553533))))
 (let (($x1412 (= ?x1555 5)))
 (let (($x1664 (not $x1412)))
 (let (($x1519 (and $x1664 (not (= ?x1555 4)))))
 (=> $x1519 $x1516)))))))))))))))))))))))
 )
(assert
 (forall ((rtt_gidx.553640 Int) (ipa_gidx.553640 Int) (i.553640 Int) (d.553640 s_granule) )(let ((?x427 (query_oracle.0_call st.0)))
 (let ((?x501 (value_RData ?x427)))
 (let ((?x1425 (set_tte_ns_abs.0_call v_0.552459 ?x501)))
 (let ((?x1383 (value_RData ?x1425)))
 (let (($x1405 (halt ?x1383)))
 (let ((?x1406 (stack ?x1383)))
 (let ((?x1339 (share ?x1383)))
 (let ((?x1340 (globals ?x1339)))
 (let ((?x1575 (g_realm_attest_private_key ?x1340)))
 (let ((?x1613 (g_get_realm_identity_identity ?x1340)))
 (let ((?x1811 (g_rmm_platform_token ?x1340)))
 (let ((?x1417 (g_platform_token_buf ?x1340)))
 (let ((?x1605 (g_rmm_attest_public_key_hash_len ?x1340)))
 (let ((?x1497 (g_rmm_attest_public_key_hash ?x1340)))
 (let ((?x1607 (g_rmm_attest_public_key_len ?x1340)))
 (let ((?x1665 (g_rmm_attest_public_key ?x1340)))
 (let ((?x1611 (g_rmm_attest_signing_key ?x1340)))
 (let ((?x1632 (g_mbedtls_mem_buf ?x1340)))
 (let ((?x1720 (g_tt_l1_upper ?x1340)))
 (let ((?x1742 (g_tt_l2_mem1_3 ?x1340)))
 (let ((?x1762 (g_tt_l2_mem1_2 ?x1340)))
 (let ((?x1710 (g_tt_l2_mem1_1 ?x1340)))
 (let ((?x1819 (g_tt_l2_mem1_0 ?x1340)))
 (let ((?x1600 (g_tt_l2_mem0_1 ?x1340)))
 (let ((?x1704 (g_tt_l2_mem0_0 ?x1340)))
 (let ((?x1773 (g_tt_l3_buffer ?x1340)))
 (let ((?x1820 (g_rmm_trap_list ?x1340)))
 (let ((?x1771 (g_status_handler ?x1340)))
 (let ((?x1818 (g_default_gicstate ?x1340)))
 (let ((?x1603 (g_pri_res0_mask ?x1340)))
 (let ((?x1800 (g_max_vintid ?x1340)))
 (let ((?x1667 (g_nr_aprs ?x1340)))
 (let ((?x1760 (g_nr_lrs ?x1340)))
 (let ((?x1604 (g_vmids ?x1340)))
 (let ((?x1602 (g_vmid_lock ?x1340)))
 (let ((?x1703 (g_vmid_count ?x1340)))
 (let ((?x1804 (g_debug_exits ?x1340)))
 (let ((?x1584 (g_heap ?x1340)))
 (let ((?x1761 (mkGLOBALS ?x1584 ?x1804 ?x1703 ?x1602 ?x1604 ?x1760 ?x1667 ?x1800 ?x1603 ?x1818 ?x1771 ?x1820 ?x1773 ?x1704 ?x1600 ?x1819 ?x1710 ?x1762 ?x1742 ?x1720 ?x1632 (store (g_granules ?x1340) i.553640 d.553640) ?x1611 ?x1665 ?x1607 ?x1497 ?x1605 ?x1417 ?x1811 ?x1613 ?x1575)))
 (let ((?x1277 (granule_data ?x1339)))
 (let ((?x1384 (gpt ?x1339)))
 (let ((?x1442 (priv ?x1383)))
 (let ((?x1501 (repl ?x1383)))
 (let ((?x1549 (oracle ?x1383)))
 (let ((?x1295 (log ?x1383)))
 (let ((?x1827 (rtt_walk_abs.0_call (mkRData ?x1295 ?x1549 ?x1501 ?x1442 (mkShared ?x1384 ?x1277 ?x1761) ?x1406 $x1405) rtt_gidx.553640 ipa_gidx.553640)))
 (let ((?x1728 (rtt_walk_abs.0_call ?x1383 rtt_gidx.553640 ipa_gidx.553640)))
 (let (($x1828 (= (+ ?x1728 (* (- 1) ?x1827)) 0)))
 (let ((?x1555 (e_state_s_granule (select (g_granules ?x1340) i.553640))))
 (let (($x1412 (= ?x1555 5)))
 (let (($x1664 (not $x1412)))
 (let (($x1519 (and $x1664 (not (= ?x1555 4)))))
 (=> $x1519 $x1828))))))))))))))))))))))))))))))))))))))))))))))))))))))
 )
(assert
 (let (($x1616 (forall ((rtt_gidx.553710 Int) (ipa_gidx.553710 Int) (data_gidx.553710 Int) )(let ((?x427 (query_oracle.0_call st.0)))
 (let ((?x501 (value_RData ?x427)))
 (let ((?x1425 (set_tte_ns_abs.0_call v_0.552459 ?x501)))
 (let ((?x1383 (value_RData ?x1425)))
 (let ((?x1339 (share ?x1383)))
 (let ((?x1277 (granule_data ?x1339)))
 (let ((?x1341 (g_granule_state (select ?x1277 (rtt_walk_abs.0_call ?x1383 rtt_gidx.553710 ipa_gidx.553710)))))
 (let (($x142 (rtt_is_root.0_call rtt_gidx.553710)))
 (=> (and (= (e_state_s_granule (select (g_granules (globals ?x1339)) rtt_gidx.553710)) 5) $x142) (or (= ?x1341 4) (= ?x1341 6))))))))))))
 ))
 (not $x1616)))
(check-sat)
